
Gurobi 6.0.5 (win64) logging started 10/15/15 20:06:14


Gurobi 6.0.5 (win64) logging started 10/15/15 20:07:50


Gurobi 6.0.5 (win64) logging started 10/15/15 20:21:03


Gurobi 6.0.5 (win64) logging started 10/15/15 20:22:12


Gurobi 6.0.5 (win64) logging started 10/15/15 20:25:17


Gurobi 6.0.5 (win64) logging started 10/15/15 20:26:13


Gurobi 6.0.5 (win64) logging started 10/15/15 20:26:55


Gurobi 6.0.5 (win64) logging started 10/15/15 20:27:24


Gurobi 6.0.5 (win64) logging started 10/15/15 20:28:33


Gurobi 6.0.5 (win64) logging started 10/15/15 20:46:51

Optimize a model with 37 rows, 28 columns and 76 nonzeros
Coefficient statistics:
  Matrix range    [1e+00, 2e+00]
  Objective range [1e+00, 4e+00]
  Bounds range    [1e+00, 1e+00]
  RHS range       [1e+00, 1e+00]
Found heuristic solution: objective 3
Presolve removed 37 rows and 28 columns
Presolve time: 0.00s

Explored 0 nodes (0 simplex iterations) in 0.00 seconds
Thread count was 1 (of 4 available processors)

Optimal solution found (tolerance 1.00e-04)
Best objective 0.000000000000e+00, best bound 0.000000000000e+00, gap 0.0%

Gurobi 6.0.5 (win64) logging started 10/15/15 20:50:18

Optimize a model with 37 rows, 28 columns and 76 nonzeros
Coefficient statistics:
  Matrix range    [1e+00, 2e+00]
  Objective range [1e+00, 4e+00]
  Bounds range    [1e+00, 1e+00]
  RHS range       [1e+00, 1e+00]
Found heuristic solution: objective 11
Presolve removed 37 rows and 28 columns
Presolve time: 0.00s

Explored 0 nodes (0 simplex iterations) in 0.00 seconds
Thread count was 1 (of 4 available processors)

Optimal solution found (tolerance 1.00e-04)
Best objective 1.000000000000e+01, best bound 1.000000000000e+01, gap 0.0%

Gurobi 6.0.5 (win64) logging started 10/15/15 20:53:51

Optimize a model with 37 rows, 28 columns and 76 nonzeros
Coefficient statistics:
  Matrix range    [1e+00, 2e+00]
  Objective range [1e+00, 4e+00]
  Bounds range    [1e+00, 4e+00]
  RHS range       [1e+00, 1e+00]
Found heuristic solution: objective 11
Presolve removed 37 rows and 28 columns
Presolve time: 0.00s

Explored 0 nodes (0 simplex iterations) in 0.00 seconds
Thread count was 1 (of 4 available processors)

Optimal solution found (tolerance 1.00e-04)
Best objective 1.000000000000e+01, best bound 1.000000000000e+01, gap 0.0%

Gurobi 6.0.5 (win64) logging started 10/15/15 21:02:00


Gurobi 6.0.5 (win64) logging started 10/15/15 21:04:32

Optimize a model with 37 rows, 28 columns and 76 nonzeros
Coefficient statistics:
  Matrix range    [1e+00, 2e+00]
  Objective range [1e+00, 4e+00]
  Bounds range    [1e+00, 4e+00]
  RHS range       [1e+00, 1e+00]
Found heuristic solution: objective 11
Presolve removed 37 rows and 28 columns
Presolve time: 0.00s

Explored 0 nodes (0 simplex iterations) in 0.00 seconds
Thread count was 1 (of 4 available processors)

Optimal solution found (tolerance 1.00e-04)
Best objective 8.000000000000e+00, best bound 8.000000000000e+00, gap 0.0%

Gurobi 6.0.5 (win64) logging started 10/15/15 21:05:07


Gurobi 6.0.5 (win64) logging started 10/15/15 21:08:10

Optimize a model with 37 rows, 28 columns and 76 nonzeros
Coefficient statistics:
  Matrix range    [1e+00, 2e+00]
  Objective range [1e+00, 4e+00]
  Bounds range    [1e+00, 4e+00]
  RHS range       [1e+00, 1e+00]
Found heuristic solution: objective 11
Presolve removed 37 rows and 28 columns
Presolve time: 0.00s

Explored 0 nodes (0 simplex iterations) in 0.00 seconds
Thread count was 1 (of 4 available processors)

Optimal solution found (tolerance 1.00e-04)
Best objective 9.000000000000e+00, best bound 9.000000000000e+00, gap 0.0%

Gurobi 6.0.5 (win64) logging started 10/19/15 20:39:12


Gurobi 6.0.5 (win64) logging started 10/19/15 23:45:38


Gurobi 6.0.5 (win64) logging started 10/19/15 23:54:07


Gurobi 6.0.5 (win64) logging started 10/20/15 11:19:50


Gurobi 6.0.5 (win64) logging started 10/20/15 11:22:16


Gurobi 6.0.5 (win64) logging started 10/20/15 11:42:11

Optimize a model with 37 rows, 28 columns and 79 nonzeros
Coefficient statistics:
  Matrix range    [1e+00, 1e+00]
  Objective range [1e+00, 1e+00]
  Bounds range    [1e+00, 1e+00]
  RHS range       [1e+00, 1e+00]
Found heuristic solution: objective 0
Presolve removed 37 rows and 28 columns
Presolve time: 0.00s

Explored 0 nodes (0 simplex iterations) in 0.00 seconds
Thread count was 1 (of 4 available processors)

Optimal solution found (tolerance 1.00e-04)
Best objective 0.000000000000e+00, best bound 0.000000000000e+00, gap 0.0%

Gurobi 6.0.5 (win64) logging started 10/20/15 11:49:19


Gurobi 6.0.5 (win64) logging started 10/20/15 11:49:59


Gurobi 6.0.5 (win64) logging started 10/20/15 12:15:37


Gurobi 6.0.5 (win64) logging started 10/20/15 12:16:38


Gurobi 6.0.5 (win64) logging started 10/20/15 12:18:44


Gurobi 6.0.5 (win64) logging started 10/20/15 12:44:02


Gurobi 6.0.5 (win64) logging started 10/20/15 12:45:02


Gurobi 6.0.5 (win64) logging started 10/20/15 12:54:24

Optimize a model with 37 rows, 28 columns and 79 nonzeros
Coefficient statistics:
  Matrix range    [1e+00, 1e+00]
  Objective range [1e+00, 1e+00]
  Bounds range    [1e+00, 1e+00]
  RHS range       [1e+00, 1e+00]
Found heuristic solution: objective 10
Presolve removed 37 rows and 28 columns
Presolve time: 0.00s

Explored 0 nodes (0 simplex iterations) in 0.00 seconds
Thread count was 1 (of 4 available processors)

Optimal solution found (tolerance 1.00e-04)
Best objective 1.000000000000e+01, best bound 1.000000000000e+01, gap 0.0%

Gurobi 6.0.5 (win64) logging started 10/20/15 13:00:37


Gurobi 6.0.5 (win64) logging started 10/20/15 19:36:04


Gurobi 6.0.5 (win64) logging started 10/22/15 16:46:20

Optimize a model with 37 rows, 28 columns and 79 nonzeros
Coefficient statistics:
  Matrix range    [1e+00, 1e+00]
  Objective range [1e+00, 1e+00]
  Bounds range    [1e+00, 1e+00]
  RHS range       [1e+00, 1e+00]
Found heuristic solution: objective 10
Presolve removed 37 rows and 28 columns
Presolve time: 0.13s

Explored 0 nodes (0 simplex iterations) in 0.26 seconds
Thread count was 1 (of 4 available processors)

Optimal solution found (tolerance 1.00e-04)
Best objective 1.000000000000e+01, best bound 1.000000000000e+01, gap 0.0%

Gurobi 6.0.5 (win64) logging started 10/22/15 16:46:55


Gurobi 6.0.5 (win64) logging started 10/22/15 17:13:06


Gurobi 6.0.5 (win64) logging started 10/22/15 17:14:35


Gurobi 6.0.5 (win64) logging started 10/22/15 17:15:56


Gurobi 6.0.5 (win64) logging started 10/22/15 17:23:45


Gurobi 6.0.5 (win64) logging started 10/22/15 17:25:53

Optimize a model with 37 rows, 28 columns and 79 nonzeros
Coefficient statistics:
  Matrix range    [1e+00, 1e+00]
  Objective range [1e+00, 1e+00]
  Bounds range    [1e+00, 1e+00]
  RHS range       [1e+00, 1e+00]
Found heuristic solution: objective 10
Presolve removed 37 rows and 28 columns
Presolve time: 0.00s

Explored 0 nodes (0 simplex iterations) in 0.00 seconds
Thread count was 1 (of 4 available processors)

Optimal solution found (tolerance 1.00e-04)
Best objective 1.000000000000e+01, best bound 1.000000000000e+01, gap 0.0%

Gurobi 6.0.5 (win64) logging started 10/22/15 17:28:34

Optimize a model with 37 rows, 28 columns and 79 nonzeros
Coefficient statistics:
  Matrix range    [1e+00, 1e+00]
  Objective range [1e+00, 1e+00]
  Bounds range    [1e+00, 1e+00]
  RHS range       [1e+00, 1e+00]
Found heuristic solution: objective 10
Presolve removed 37 rows and 28 columns
Presolve time: 0.00s

Explored 0 nodes (0 simplex iterations) in 0.00 seconds
Thread count was 1 (of 4 available processors)

Optimal solution found (tolerance 1.00e-04)
Best objective 1.000000000000e+01, best bound 1.000000000000e+01, gap 0.0%

Gurobi 6.0.5 (win64) logging started 10/22/15 17:31:29


Gurobi 6.0.5 (win64) logging started 10/22/15 17:32:51

Optimize a model with 37 rows, 28 columns and 79 nonzeros
Coefficient statistics:
  Matrix range    [1e+00, 1e+00]
  Objective range [1e+00, 1e+00]
  Bounds range    [1e+00, 1e+00]
  RHS range       [1e+00, 1e+00]
Found heuristic solution: objective 10
Presolve removed 37 rows and 28 columns
Presolve time: 0.00s

Explored 0 nodes (0 simplex iterations) in 0.00 seconds
Thread count was 1 (of 4 available processors)

Optimal solution found (tolerance 1.00e-04)
Best objective 1.000000000000e+01, best bound 1.000000000000e+01, gap 0.0%

Gurobi 6.0.5 (win64) logging started 10/22/15 20:11:05


Gurobi 6.0.5 (win64) logging started 10/22/15 20:40:44


Gurobi 6.0.5 (win64) logging started 10/22/15 20:55:29


Gurobi 6.0.5 (win64) logging started 10/22/15 20:56:07


Gurobi 6.0.5 (win64) logging started 10/22/15 20:57:12

Optimize a model with 37 rows, 28 columns and 91 nonzeros
Coefficient statistics:
  Matrix range    [1e+00, 1e+00]
  Objective range [1e+00, 1e+00]
  Bounds range    [1e+00, 1e+00]
  RHS range       [1e+00, 1e+00]
Presolve removed 27 rows and 24 columns
Presolve time: 0.00s

Explored 0 nodes (0 simplex iterations) in 0.00 seconds
Thread count was 1 (of 4 available processors)

Model is infeasible
Best objective -, best bound -, gap -

Gurobi 6.0.5 (win64) logging started 10/22/15 21:04:33


Gurobi 6.0.5 (win64) logging started 10/22/15 21:07:22


Gurobi 6.0.5 (win64) logging started 10/22/15 21:10:46

Optimize a model with 37 rows, 28 columns and 91 nonzeros
Coefficient statistics:
  Matrix range    [1e+00, 1e+00]
  Objective range [1e+00, 1e+00]
  Bounds range    [1e+00, 1e+00]
  RHS range       [1e+00, 1e+00]
Presolve removed 27 rows and 24 columns
Presolve time: 0.00s

Explored 0 nodes (0 simplex iterations) in 0.00 seconds
Thread count was 1 (of 4 available processors)

Model is infeasible
Best objective -, best bound -, gap -

Gurobi 6.0.5 (win64) logging started 10/22/15 21:14:04

Optimize a model with 37 rows, 28 columns and 91 nonzeros
Coefficient statistics:
  Matrix range    [1e+00, 1e+00]
  Objective range [1e+00, 1e+00]
  Bounds range    [1e+00, 1e+00]
  RHS range       [1e+00, 1e+00]
Presolve removed 27 rows and 24 columns
Presolve time: 0.00s

Explored 0 nodes (0 simplex iterations) in 0.00 seconds
Thread count was 1 (of 4 available processors)

Model is infeasible
Best objective -, best bound -, gap -

Gurobi 6.0.5 (win64) logging started 10/22/15 21:14:24

Optimize a model with 37 rows, 28 columns and 91 nonzeros
Coefficient statistics:
  Matrix range    [1e+00, 1e+00]
  Objective range [1e+00, 1e+00]
  Bounds range    [1e+00, 1e+00]
  RHS range       [1e+00, 1e+00]
Presolve removed 27 rows and 24 columns
Presolve time: 0.00s

Explored 0 nodes (0 simplex iterations) in 0.00 seconds
Thread count was 1 (of 4 available processors)

Model is infeasible
Best objective -, best bound -, gap -

Gurobi 6.0.5 (win64) logging started 10/22/15 21:17:50

Optimize a model with 37 rows, 28 columns and 91 nonzeros
Coefficient statistics:
  Matrix range    [1e+00, 1e+00]
  Objective range [1e+00, 1e+00]
  Bounds range    [1e+00, 1e+00]
  RHS range       [1e+00, 1e+00]
Presolve removed 27 rows and 24 columns
Presolve time: 0.00s

Explored 0 nodes (0 simplex iterations) in 0.00 seconds
Thread count was 1 (of 4 available processors)

Model is infeasible
Best objective -, best bound -, gap -

Gurobi 6.0.5 (win64) logging started 10/22/15 21:24:27

Optimize a model with 37 rows, 28 columns and 79 nonzeros
Coefficient statistics:
  Matrix range    [1e+00, 1e+00]
  Objective range [1e+00, 1e+00]
  Bounds range    [1e+00, 1e+00]
  RHS range       [1e+00, 1e+00]
Found heuristic solution: objective 3
Presolve removed 37 rows and 28 columns
Presolve time: 0.00s

Explored 0 nodes (0 simplex iterations) in 0.00 seconds
Thread count was 1 (of 4 available processors)

Optimal solution found (tolerance 1.00e-04)
Best objective 3.000000000000e+00, best bound 3.000000000000e+00, gap 0.0%

Gurobi 6.0.5 (win64) logging started 10/22/15 21:28:05

Optimize a model with 37 rows, 28 columns and 79 nonzeros
Coefficient statistics:
  Matrix range    [1e+00, 1e+00]
  Objective range [1e+00, 1e+00]
  Bounds range    [1e+00, 1e+00]
  RHS range       [1e+00, 1e+00]
Found heuristic solution: objective 3
Presolve removed 37 rows and 28 columns
Presolve time: 0.00s

Explored 0 nodes (0 simplex iterations) in 0.00 seconds
Thread count was 1 (of 4 available processors)

Optimal solution found (tolerance 1.00e-04)
Best objective 3.000000000000e+00, best bound 3.000000000000e+00, gap 0.0%

Gurobi 6.0.5 (win64) logging started 10/22/15 21:30:00

Optimize a model with 37 rows, 28 columns and 79 nonzeros
Coefficient statistics:
  Matrix range    [1e+00, 1e+00]
  Objective range [1e+00, 4e+00]
  Bounds range    [1e+00, 1e+00]
  RHS range       [1e+00, 1e+00]
Found heuristic solution: objective 11
Presolve removed 37 rows and 28 columns
Presolve time: 0.00s

Explored 0 nodes (0 simplex iterations) in 0.00 seconds
Thread count was 1 (of 4 available processors)

Optimal solution found (tolerance 1.00e-04)
Best objective 1.100000000000e+01, best bound 1.100000000000e+01, gap 0.0%

Gurobi 6.0.5 (win64) logging started 10/22/15 21:30:11

Optimize a model with 37 rows, 28 columns and 79 nonzeros
Coefficient statistics:
  Matrix range    [1e+00, 1e+00]
  Objective range [1e+00, 4e+00]
  Bounds range    [1e+00, 1e+00]
  RHS range       [1e+00, 1e+00]
Found heuristic solution: objective 11
Presolve removed 37 rows and 28 columns
Presolve time: 0.00s

Explored 0 nodes (0 simplex iterations) in 0.00 seconds
Thread count was 1 (of 4 available processors)

Optimal solution found (tolerance 1.00e-04)
Best objective 1.100000000000e+01, best bound 1.100000000000e+01, gap 0.0%

Gurobi 6.0.5 (win64) logging started 10/22/15 21:31:10

Optimize a model with 37 rows, 28 columns and 79 nonzeros
Coefficient statistics:
  Matrix range    [1e+00, 2e+00]
  Objective range [1e+00, 4e+00]
  Bounds range    [1e+00, 1e+00]
  RHS range       [1e+00, 1e+00]
Found heuristic solution: objective 11
Presolve removed 37 rows and 28 columns
Presolve time: 0.00s

Explored 0 nodes (0 simplex iterations) in 0.00 seconds
Thread count was 1 (of 4 available processors)

Optimal solution found (tolerance 1.00e-04)
Best objective 1.100000000000e+01, best bound 1.100000000000e+01, gap 0.0%

Gurobi 6.0.5 (win64) logging started 10/22/15 21:31:28

Optimize a model with 37 rows, 28 columns and 79 nonzeros
Coefficient statistics:
  Matrix range    [1e+00, 2e+00]
  Objective range [1e+00, 4e+00]
  Bounds range    [1e+00, 1e+00]
  RHS range       [1e+00, 1e+00]
Found heuristic solution: objective 11
Presolve removed 37 rows and 28 columns
Presolve time: 0.00s

Explored 0 nodes (0 simplex iterations) in 0.00 seconds
Thread count was 1 (of 4 available processors)

Optimal solution found (tolerance 1.00e-04)
Best objective 1.100000000000e+01, best bound 1.100000000000e+01, gap 0.0%

Gurobi 6.0.5 (win64) logging started 10/22/15 21:32:24

Optimize a model with 37 rows, 28 columns and 79 nonzeros
Coefficient statistics:
  Matrix range    [1e+00, 2e+00]
  Objective range [1e+00, 4e+00]
  Bounds range    [1e+00, 1e+00]
  RHS range       [1e+00, 1e+00]
Found heuristic solution: objective 11
Presolve removed 37 rows and 28 columns
Presolve time: 0.00s

Explored 0 nodes (0 simplex iterations) in 0.00 seconds
Thread count was 1 (of 4 available processors)

Optimal solution found (tolerance 1.00e-04)
Best objective 1.100000000000e+01, best bound 1.100000000000e+01, gap 0.0%

Gurobi 6.0.5 (win64) logging started 10/22/15 21:35:10

Optimize a model with 37 rows, 28 columns and 76 nonzeros
Coefficient statistics:
  Matrix range    [1e+00, 2e+00]
  Objective range [1e+00, 4e+00]
  Bounds range    [1e+00, 4e+00]
  RHS range       [1e+00, 1e+00]
Found heuristic solution: objective 11
Presolve removed 37 rows and 28 columns
Presolve time: 0.03s

Explored 0 nodes (0 simplex iterations) in 0.03 seconds
Thread count was 1 (of 4 available processors)

Optimal solution found (tolerance 1.00e-04)
Best objective 9.000000000000e+00, best bound 9.000000000000e+00, gap 0.0%

Gurobi 6.0.5 (win64) logging started 10/22/15 21:36:26

Optimize a model with 37 rows, 28 columns and 79 nonzeros
Coefficient statistics:
  Matrix range    [1e+00, 2e+00]
  Objective range [1e+00, 4e+00]
  Bounds range    [1e+00, 1e+00]
  RHS range       [1e+00, 1e+00]
Found heuristic solution: objective 11
Presolve removed 37 rows and 28 columns
Presolve time: 0.00s

Explored 0 nodes (0 simplex iterations) in 0.00 seconds
Thread count was 1 (of 4 available processors)

Optimal solution found (tolerance 1.00e-04)
Best objective 1.100000000000e+01, best bound 1.100000000000e+01, gap 0.0%

Gurobi 6.0.5 (win64) logging started 10/22/15 22:04:42

Optimize a model with 37 rows, 28 columns and 79 nonzeros
Coefficient statistics:
  Matrix range    [1e+00, 2e+00]
  Objective range [1e+00, 4e+00]
  Bounds range    [1e+00, 1e+00]
  RHS range       [1e+00, 1e+00]
Found heuristic solution: objective 11
Presolve removed 37 rows and 28 columns
Presolve time: 0.00s

Explored 0 nodes (0 simplex iterations) in 0.00 seconds
Thread count was 1 (of 4 available processors)

Optimal solution found (tolerance 1.00e-04)
Best objective 1.100000000000e+01, best bound 1.100000000000e+01, gap 0.0%

Gurobi 6.0.5 (win64) logging started 10/22/15 22:27:27

Optimize a model with 37 rows, 28 columns and 79 nonzeros
Coefficient statistics:
  Matrix range    [1e+00, 2e+00]
  Objective range [1e+00, 4e+00]
  Bounds range    [1e+00, 1e+00]
  RHS range       [1e+00, 1e+00]
Found heuristic solution: objective 11
Presolve removed 37 rows and 28 columns
Presolve time: 0.00s

Explored 0 nodes (0 simplex iterations) in 0.00 seconds
Thread count was 1 (of 4 available processors)

Optimal solution found (tolerance 1.00e-04)
Best objective 1.100000000000e+01, best bound 1.100000000000e+01, gap 0.0%

Gurobi 6.0.5 (win64) logging started 10/22/15 22:34:54


Gurobi 6.0.5 (win64) logging started 10/22/15 22:36:43


Gurobi 6.0.5 (win64) logging started 10/22/15 22:38:26


Gurobi 6.0.5 (win64) logging started 10/22/15 22:43:24

Optimize a model with 37 rows, 28 columns and 79 nonzeros
Coefficient statistics:
  Matrix range    [1e+00, 2e+00]
  Objective range [1e+00, 4e+00]
  Bounds range    [1e+00, 1e+00]
  RHS range       [1e+00, 1e+00]
Found heuristic solution: objective 11
Presolve removed 37 rows and 28 columns
Presolve time: 0.00s

Explored 0 nodes (0 simplex iterations) in 0.00 seconds
Thread count was 1 (of 4 available processors)

Optimal solution found (tolerance 1.00e-04)
Best objective 1.100000000000e+01, best bound 1.100000000000e+01, gap 0.0%

Gurobi 6.0.5 (win64) logging started 10/22/15 22:55:46

Optimize a model with 37 rows, 28 columns and 79 nonzeros
Coefficient statistics:
  Matrix range    [1e+00, 2e+00]
  Objective range [1e+00, 4e+00]
  Bounds range    [1e+00, 1e+00]
  RHS range       [1e+00, 1e+00]
Found heuristic solution: objective 11
Presolve removed 37 rows and 28 columns
Presolve time: 0.00s

Explored 0 nodes (0 simplex iterations) in 0.00 seconds
Thread count was 1 (of 4 available processors)

Optimal solution found (tolerance 1.00e-04)
Best objective 1.100000000000e+01, best bound 1.100000000000e+01, gap 0.0%

Gurobi 6.0.5 (win64) logging started 10/22/15 22:59:08

Optimize a model with 37 rows, 28 columns and 79 nonzeros
Coefficient statistics:
  Matrix range    [1e+00, 2e+00]
  Objective range [1e+00, 4e+00]
  Bounds range    [1e+00, 1e+00]
  RHS range       [1e+00, 1e+00]
Found heuristic solution: objective 11
Presolve removed 37 rows and 28 columns
Presolve time: 0.00s

Explored 0 nodes (0 simplex iterations) in 0.00 seconds
Thread count was 1 (of 4 available processors)

Optimal solution found (tolerance 1.00e-04)
Best objective 1.100000000000e+01, best bound 1.100000000000e+01, gap 0.0%

Gurobi 6.0.5 (win64) logging started 10/22/15 23:00:57

Optimize a model with 37 rows, 28 columns and 79 nonzeros
Coefficient statistics:
  Matrix range    [1e+00, 2e+00]
  Objective range [1e+00, 4e+00]
  Bounds range    [1e+00, 1e+00]
  RHS range       [1e+00, 1e+00]
Found heuristic solution: objective 11
Presolve removed 37 rows and 28 columns
Presolve time: 0.00s

Explored 0 nodes (0 simplex iterations) in 0.00 seconds
Thread count was 1 (of 4 available processors)

Optimal solution found (tolerance 1.00e-04)
Best objective 1.100000000000e+01, best bound 1.100000000000e+01, gap 0.0%

Gurobi 6.0.5 (win64) logging started 10/22/15 23:02:50

Optimize a model with 37 rows, 28 columns and 79 nonzeros
Coefficient statistics:
  Matrix range    [1e+00, 2e+00]
  Objective range [1e+00, 4e+00]
  Bounds range    [1e+00, 1e+00]
  RHS range       [1e+00, 1e+00]
Found heuristic solution: objective 11
Presolve removed 37 rows and 28 columns
Presolve time: 0.00s

Explored 0 nodes (0 simplex iterations) in 0.00 seconds
Thread count was 1 (of 4 available processors)

Optimal solution found (tolerance 1.00e-04)
Best objective 1.100000000000e+01, best bound 1.100000000000e+01, gap 0.0%

Gurobi 6.0.5 (win64) logging started 10/22/15 23:04:31

Optimize a model with 37 rows, 28 columns and 79 nonzeros
Coefficient statistics:
  Matrix range    [1e+00, 2e+00]
  Objective range [1e+00, 4e+00]
  Bounds range    [1e+00, 1e+00]
  RHS range       [1e+00, 1e+00]
Found heuristic solution: objective 11
Presolve removed 37 rows and 28 columns
Presolve time: 0.00s

Explored 0 nodes (0 simplex iterations) in 0.00 seconds
Thread count was 1 (of 4 available processors)

Optimal solution found (tolerance 1.00e-04)
Best objective 1.100000000000e+01, best bound 1.100000000000e+01, gap 0.0%

Gurobi 6.0.5 (win64) logging started 10/22/15 23:05:09

Optimize a model with 37 rows, 28 columns and 79 nonzeros
Coefficient statistics:
  Matrix range    [1e+00, 2e+00]
  Objective range [1e+00, 4e+00]
  Bounds range    [1e+00, 1e+00]
  RHS range       [1e+00, 1e+00]
Found heuristic solution: objective 11
Presolve removed 37 rows and 28 columns
Presolve time: 0.00s

Explored 0 nodes (0 simplex iterations) in 0.00 seconds
Thread count was 1 (of 4 available processors)

Optimal solution found (tolerance 1.00e-04)
Best objective 1.100000000000e+01, best bound 1.100000000000e+01, gap 0.0%

Gurobi 6.0.5 (win64) logging started 10/22/15 23:05:42

Optimize a model with 37 rows, 28 columns and 79 nonzeros
Coefficient statistics:
  Matrix range    [1e+00, 2e+00]
  Objective range [1e+00, 4e+00]
  Bounds range    [1e+00, 1e+00]
  RHS range       [1e+00, 1e+00]
Found heuristic solution: objective 11
Presolve removed 37 rows and 28 columns
Presolve time: 0.00s

Explored 0 nodes (0 simplex iterations) in 0.00 seconds
Thread count was 1 (of 4 available processors)

Optimal solution found (tolerance 1.00e-04)
Best objective 1.100000000000e+01, best bound 1.100000000000e+01, gap 0.0%

Gurobi 6.0.5 (win64) logging started 10/22/15 23:10:44

Optimize a model with 37 rows, 28 columns and 64 nonzeros
Coefficient statistics:
  Matrix range    [1e+00, 2e+00]
  Objective range [1e+00, 4e+00]
  Bounds range    [1e+00, 1e+00]
  RHS range       [1e+00, 1e+00]
Found heuristic solution: objective 0
Presolve removed 37 rows and 28 columns
Presolve time: 0.00s

Explored 0 nodes (0 simplex iterations) in 0.00 seconds
Thread count was 1 (of 4 available processors)

Optimal solution found (tolerance 1.00e-04)
Best objective 0.000000000000e+00, best bound 0.000000000000e+00, gap 0.0%

Gurobi 6.0.5 (win64) logging started 10/22/15 23:14:02

Optimize a model with 37 rows, 28 columns and 64 nonzeros
Coefficient statistics:
  Matrix range    [1e+00, 2e+00]
  Objective range [1e+00, 4e+00]
  Bounds range    [1e+00, 1e+00]
  RHS range       [1e+00, 1e+00]
Found heuristic solution: objective 0
Presolve removed 37 rows and 28 columns
Presolve time: 0.00s

Explored 0 nodes (0 simplex iterations) in 0.00 seconds
Thread count was 1 (of 4 available processors)

Optimal solution found (tolerance 1.00e-04)
Best objective 0.000000000000e+00, best bound 0.000000000000e+00, gap 0.0%

Gurobi 6.0.5 (win64) logging started 10/22/15 23:15:48


Gurobi 6.0.5 (win64) logging started 10/22/15 23:20:39

Optimize a model with 37 rows, 28 columns and 73 nonzeros
Coefficient statistics:
  Matrix range    [1e+00, 2e+00]
  Objective range [1e+00, 4e+00]
  Bounds range    [1e+00, 1e+00]
  RHS range       [1e+00, 1e+00]
Found heuristic solution: objective 11
Presolve removed 37 rows and 28 columns
Presolve time: 0.00s

Explored 0 nodes (0 simplex iterations) in 0.00 seconds
Thread count was 1 (of 4 available processors)

Optimal solution found (tolerance 1.00e-04)
Best objective 1.100000000000e+01, best bound 1.100000000000e+01, gap 0.0%

Gurobi 6.0.5 (win64) logging started 10/22/15 23:26:47

Optimize a model with 37 rows, 28 columns and 73 nonzeros
Coefficient statistics:
  Matrix range    [1e+00, 2e+00]
  Objective range [1e+00, 4e+00]
  Bounds range    [1e+00, 1e+00]
  RHS range       [1e+00, 1e+00]
Presolve removed 0 rows and 12 columns
Presolve time: 0.00s

Explored 0 nodes (0 simplex iterations) in 0.00 seconds
Thread count was 1 (of 4 available processors)

Model is infeasible
Best objective -, best bound -, gap -

Gurobi 6.0.5 (win64) logging started 10/22/15 23:27:29

Optimize a model with 27 rows, 28 columns and 51 nonzeros
Coefficient statistics:
  Matrix range    [1e+00, 1e+00]
  Objective range [1e+00, 4e+00]
  Bounds range    [1e+00, 1e+00]
  RHS range       [1e+00, 1e+00]
Presolve removed 0 rows and 12 columns
Presolve time: 0.00s

Explored 0 nodes (0 simplex iterations) in 0.00 seconds
Thread count was 1 (of 4 available processors)

Model is infeasible
Best objective -, best bound -, gap -

Gurobi 6.0.5 (win64) logging started 10/22/15 23:27:46

Optimize a model with 25 rows, 28 columns and 49 nonzeros
Coefficient statistics:
  Matrix range    [1e+00, 2e+00]
  Objective range [1e+00, 4e+00]
  Bounds range    [1e+00, 1e+00]
  RHS range       [1e+00, 1e+00]
Presolve removed 0 rows and 12 columns
Presolve time: 0.00s

Explored 0 nodes (0 simplex iterations) in 0.00 seconds
Thread count was 1 (of 4 available processors)

Model is infeasible
Best objective -, best bound -, gap -

Gurobi 6.0.5 (win64) logging started 10/22/15 23:28:04

Optimize a model with 25 rows, 28 columns and 49 nonzeros
Coefficient statistics:
  Matrix range    [1e+00, 2e+00]
  Objective range [1e+00, 4e+00]
  Bounds range    [1e+00, 1e+00]
  RHS range       [1e+00, 1e+00]
Presolve removed 0 rows and 24 columns
Presolve time: 0.00s

Explored 0 nodes (0 simplex iterations) in 0.00 seconds
Thread count was 1 (of 4 available processors)

Model is infeasible
Best objective -, best bound -, gap -

Gurobi 6.0.5 (win64) logging started 10/22/15 23:28:21

Optimize a model with 34 rows, 28 columns and 70 nonzeros
Coefficient statistics:
  Matrix range    [1e+00, 2e+00]
  Objective range [1e+00, 4e+00]
  Bounds range    [1e+00, 1e+00]
  RHS range       [0e+00, 0e+00]
Found heuristic solution: objective 9
Presolve removed 34 rows and 28 columns
Presolve time: 0.00s

Explored 0 nodes (0 simplex iterations) in 0.00 seconds
Thread count was 1 (of 4 available processors)

Optimal solution found (tolerance 1.00e-04)
Best objective 9.000000000000e+00, best bound 9.000000000000e+00, gap 0.0%

Gurobi 6.0.5 (win64) logging started 10/22/15 23:29:05

Optimize a model with 37 rows, 28 columns and 73 nonzeros
Coefficient statistics:
  Matrix range    [1e+00, 2e+00]
  Objective range [1e+00, 4e+00]
  Bounds range    [1e+00, 1e+00]
  RHS range       [1e+00, 1e+00]
Presolve removed 0 rows and 12 columns
Presolve time: 0.00s

Explored 0 nodes (0 simplex iterations) in 0.00 seconds
Thread count was 1 (of 4 available processors)

Model is infeasible
Best objective -, best bound -, gap -

Gurobi 6.0.5 (win64) logging started 10/22/15 23:32:19

Optimize a model with 37 rows, 28 columns and 73 nonzeros
Coefficient statistics:
  Matrix range    [1e+00, 2e+00]
  Objective range [1e+00, 4e+00]
  Bounds range    [1e+00, 1e+00]
  RHS range       [1e+00, 1e+00]
Presolve removed 0 rows and 12 columns
Presolve time: 0.00s

Explored 0 nodes (0 simplex iterations) in 0.00 seconds
Thread count was 1 (of 4 available processors)

Model is infeasible
Best objective -, best bound -, gap -

Gurobi 6.0.5 (win64) logging started 10/22/15 23:32:32

Optimize a model with 37 rows, 28 columns and 73 nonzeros
Coefficient statistics:
  Matrix range    [1e+00, 2e+00]
  Objective range [1e+00, 4e+00]
  Bounds range    [1e+00, 1e+00]
  RHS range       [0e+00, 0e+00]
Found heuristic solution: objective 9
Presolve removed 37 rows and 28 columns
Presolve time: 0.00s

Explored 0 nodes (0 simplex iterations) in 0.00 seconds
Thread count was 1 (of 4 available processors)

Optimal solution found (tolerance 1.00e-04)
Best objective 9.000000000000e+00, best bound 9.000000000000e+00, gap 0.0%

Gurobi 6.0.5 (win64) logging started 10/22/15 23:33:25

Optimize a model with 37 rows, 28 columns and 73 nonzeros
Coefficient statistics:
  Matrix range    [1e+00, 2e+00]
  Objective range [1e+00, 4e+00]
  Bounds range    [1e+00, 1e+00]
  RHS range       [5e-01, 5e-01]
Presolve removed 0 rows and 12 columns
Presolve time: 0.00s

Explored 0 nodes (0 simplex iterations) in 0.00 seconds
Thread count was 1 (of 4 available processors)

Model is infeasible
Best objective -, best bound -, gap -

Gurobi 6.0.5 (win64) logging started 10/22/15 23:34:16

Optimize a model with 37 rows, 28 columns and 73 nonzeros
Coefficient statistics:
  Matrix range    [1e+00, 2e+00]
  Objective range [1e+00, 4e+00]
  Bounds range    [1e+00, 1e+00]
  RHS range       [1e+00, 1e+00]
Presolve removed 0 rows and 12 columns
Presolve time: 0.00s

Explored 0 nodes (0 simplex iterations) in 0.00 seconds
Thread count was 1 (of 4 available processors)

Model is infeasible
Best objective -, best bound -, gap -

Gurobi 6.0.5 (win64) logging started 10/22/15 23:35:23

Optimize a model with 34 rows, 28 columns and 70 nonzeros
Coefficient statistics:
  Matrix range    [1e+00, 2e+00]
  Objective range [1e+00, 4e+00]
  Bounds range    [1e+00, 1e+00]
  RHS range       [0e+00, 0e+00]
Found heuristic solution: objective 9
Presolve removed 34 rows and 28 columns
Presolve time: 0.00s

Explored 0 nodes (0 simplex iterations) in 0.00 seconds
Thread count was 1 (of 4 available processors)

Optimal solution found (tolerance 1.00e-04)
Best objective 9.000000000000e+00, best bound 9.000000000000e+00, gap 0.0%

Gurobi 6.0.5 (win64) logging started 10/22/15 23:35:42

Optimize a model with 34 rows, 28 columns and 70 nonzeros
Coefficient statistics:
  Matrix range    [1e+00, 2e+00]
  Objective range [1e+00, 4e+00]
  Bounds range    [1e+00, 1e+00]
  RHS range       [0e+00, 0e+00]
Found heuristic solution: objective 9
Presolve removed 34 rows and 28 columns
Presolve time: 0.00s

Explored 0 nodes (0 simplex iterations) in 0.00 seconds
Thread count was 1 (of 4 available processors)

Optimal solution found (tolerance 1.00e-04)
Best objective 9.000000000000e+00, best bound 9.000000000000e+00, gap 0.0%

Gurobi 6.0.5 (win64) logging started 10/22/15 23:41:42


Gurobi 6.0.5 (win64) logging started 10/22/15 23:44:14

Optimize a model with 37 rows, 28 columns and 76 nonzeros
Coefficient statistics:
  Matrix range    [1e+00, 2e+00]
  Objective range [1e+00, 4e+00]
  Bounds range    [1e+00, 1e+00]
  RHS range       [1e+00, 1e+00]
Found heuristic solution: objective 9
Presolve removed 37 rows and 28 columns
Presolve time: 0.00s

Explored 0 nodes (0 simplex iterations) in 0.00 seconds
Thread count was 1 (of 4 available processors)

Optimal solution found (tolerance 1.00e-04)
Best objective 9.000000000000e+00, best bound 9.000000000000e+00, gap 0.0%

Gurobi 6.0.5 (win64) logging started 10/22/15 23:44:42

Optimize a model with 37 rows, 28 columns and 76 nonzeros
Coefficient statistics:
  Matrix range    [1e+00, 2e+00]
  Objective range [1e+00, 4e+00]
  Bounds range    [1e+00, 1e+00]
  RHS range       [1e+00, 1e+00]
Found heuristic solution: objective 11
Presolve removed 37 rows and 28 columns
Presolve time: 0.00s

Explored 0 nodes (0 simplex iterations) in 0.00 seconds
Thread count was 1 (of 4 available processors)

Optimal solution found (tolerance 1.00e-04)
Best objective 9.000000000000e+00, best bound 9.000000000000e+00, gap 0.0%
